(set-info :source  loris-7.ddns.comp.nus.edu.sg/~project/hip/) 
;Variables declarations
(declare-fun cn () Int)
(declare-fun bn () Int)
(declare-fun n1_3825 () Int)
(declare-fun n2_3828 () Int)
(declare-fun n_3821 () Int)
(declare-fun n_3770 () Int)
(declare-fun n_3755 () Int)
(declare-fun n_3717 () Int)
(declare-fun n_3708 () Int)
(declare-fun n1_3703 () Int)
(declare-fun n2_3706 () Int)
(declare-fun n_3699 () Int)
(declare-fun Anon_3645 () Int)
(declare-fun flted_105_3983 () Int)
(declare-fun an () Int)
(declare-fun n_3641 () Int)
(declare-fun n_3631 () Int)
(declare-fun n_3651 () Int)
(declare-fun n_3367 () Int)
(declare-fun n1_3371 () Int)
(declare-fun n2_3374 () Int)
(declare-fun n () Int)
;Relations declarations
;Axioms assertions
;Antecedent
(assert (<= 0 cn))
(assert (<= 0 bn))
(assert (<= 0 n1_3825))
(assert (<= 0 n2_3828))
(assert (= cn n2_3828))
(assert (= bn n1_3825))
(assert (<= (+ 0 n2_3828) (+ n1_3825 1)))
(assert (<= n1_3825 (+ 1 n2_3828)))
(assert (exists ((max_3997 Int)) (and (= n_3755 (+ 1 max_3997)) (or (and (= max_3997 n1_3825) (>= n1_3825 n2_3828)) (and (= max_3997 n2_3828) (< n1_3825 n2_3828))))))
(assert (= n_3821 n_3755))
(assert (<= n_3708 n_3717))
(assert (<= 0 n_3770))
(assert (<= 0 n_3708))
(assert (= n_3770 n_3708))
(assert (= (+ n_3770 1) n_3755))
(assert (<= 0 n_3755))
(assert (<= 0 n_3717))
(assert (= n_3755 n_3717))
(assert (<= 0 n1_3703))
(assert (= n_3717 n1_3703))
(assert (<= 0 n2_3706))
(assert (= n_3708 n2_3706))
(assert (<= 0 Anon_3645))
(assert (<= 0 flted_105_3983))
(assert (<= (+ 0 n2_3706) (+ n1_3703 1)))
(assert (<= n1_3703 (+ 1 n2_3706)))
(assert (exists ((max_3998 Int)) (and (= n_3641 (+ 1 max_3998)) (or (and (= max_3998 n1_3703) (>= n1_3703 n2_3706)) (and (= max_3998 n2_3706) (< n1_3703 n2_3706))))))
(assert (= n_3699 n_3641))
(assert (= n_3641 Anon_3645))
(assert (<= 0 n_3641))
(assert (<= 0 an))
(assert (= flted_105_3983 (+ an 2)))
(assert (<= 0 n_3651))
(assert (= an n_3651))
(assert (= (+ 2 n_3651) n_3641))
(assert (<= 0 n_3631))
(assert (<= (+ 0 n2_3374) (+ n1_3371 1)))
(assert (<= n1_3371 (+ 1 n2_3374)))
(assert (= n_3631 n2_3374))
(assert (<= 0 n2_3374))
(assert (= n_3651 n1_3371))
(assert (<= 0 n1_3371))
(assert (= n_3367 n))
(assert (exists ((max_3999 Int)) (and (= n (+ 1 max_3999)) (or (and (= max_3999 n1_3371) (>= n1_3371 n2_3374)) (and (= max_3999 n2_3374) (< n1_3371 n2_3374))))))
;Negation of Consequence
(assert (not (<= 0 n)))
(check-sat)